c User generated cnf file
p cnf 12 32
2 12 -8 0 
11 1 -5 0 
-2 10 11 0 
4 -3 1 0 
10 11 -9 0 
7 7 -2 0 
1 -1 4 0 
10 -3 9 0 
9 -2 9 0 
11 -3 2 0 
-3 7 1 0 
6 7 -4 0 
11 -1 8 0 
-8 7 3 0 
10 3 -4 0 
-2 5 7 0 
3 12 -8 0 
6 4 -2 0 
2 -11 4 0 
11 -10 4 0 
11 6 -12 0 
11 -10 3 0 
-3 9 9 0 
5 6 -11 0 
8 -6 6 0 
7 -10 9 0 
10 10 -6 0 
5 9 -4 0 
8 3 -4 0 
6 -11 9 0 
10 -7 8 0 
4 -8 2 0 
